\ENCODING=ISO-8859-1
\Problem name: ilog.cplex

Minimize
 obj: 30 x12 + 17 x13 + 22 x14 + 25 x15
Subject To
 c1:  x1 + x2 <= 1
 c2:  x3 + x4 <= 1
 c3:  x5 + x6 <= 1
 c4:  x7 + x8 <= 1
 c5:  x9 + x10 <= 1
 c6:  x11  = 1
 c7:  x12 + x13 + x14 + x15  = 1
 c8:  x9 - x16  = 0
 c9:  - x1 + x17  = 0
 c10: x10 - x18  = 0
 c11: - x13 + x19  = 0
 c12: x16 - x20  = 0
 c13: x3 - x14  = 0
 c14: x7 - x21  = 0
 c15: x18 - x19  = 0
 c16: - x15 + x22  = 0
 c17: x11 - x23  = 0
 c18: - x3 - x4 + x20  = 0
 c19: x1 + x2 - x12  = 0
 c20: - x5 - x6 + x21  = 0
 c21: - x7 - x8 + x23  = 0
 c22: x5 - x17  = 0
 c23: - x2 + x4  = 0
 c24: x8 - x9 - x10  = 0
 c25: x6 - x22  = 0
 c26: x4 + x5 + x9 >= 2
Bounds
 0 <= x1 <= 1
 0 <= x2 <= 1
 0 <= x3 <= 1
 0 <= x4 <= 1
 0 <= x5 <= 1
 0 <= x6 <= 1
 0 <= x7 <= 1
 0 <= x8 <= 1
 0 <= x9 <= 1
 0 <= x10 <= 1
 0 <= x11 <= 1
 0 <= x12 <= 1
 0 <= x13 <= 1
 0 <= x14 <= 1
 0 <= x15 <= 1
 0 <= x16 <= 1
 0 <= x17 <= 1
 0 <= x18 <= 1
 0 <= x19 <= 1
 0 <= x20 <= 1
 0 <= x21 <= 1
 0 <= x22 <= 1
 0 <= x23 <= 1
Binaries
 x1  x2  x3  x4  x5  x6  x7  x8  x9  x10  x11  x12  x13  x14  x15  x16  x17 
 x18  x19  x20  x21  x22  x23 
End
